\* sidsproblem *\
Minimize
OBJ: 0.235470147561 x__6_10_ + 0.21406377051 x__6_11_
 + 0.160547827882 x__6_12_ + 0.0987986633122 x__6_13_
 + 0.0493993316561 x__6_14_ + 0.0197597326624 x__6_15_
 + 0.00617491645701 x__6_16_ + 0.0014529215193 x__6_17_
 + 0.00024215358655 x__6_18_ + 2.54898512157e-05 x__6_19_
 + 1.27449256079e-06 x__6_20_ + 0.21406377051 x__6_9_
Subject To
_C1: x__3_0_ + 20 x__3_1_ >= 210
_C10: x__4_3_ <= 186
_C11: x__4_4_ <= 186
_C12: x__5_0_ <= 5934
_C13: x__5_1_ <= 5934
_C14: x__5_2_ <= 5934
_C15: x__5_3_ <= 5934
_C16: x__5_4_ <= 5934
_C17: x__5_5_ <= 5934
_C18: x__5_6_ <= 5934
_C19: x__5_7_ <= 5934
_C2: x__4_0_ + 20 x__4_1_ + 90 x__4_2_ + 60 x__4_3_ + 15 x__4_4_ >= 17205
_C20: x__5_8_ <= 5934
_C21: x__5_9_ <= 5934
_C22: x__5_10_ <= 5934
_C23: x__6_0_ <= 1048576
_C24: x__6_1_ <= 1048576
_C25: x__6_2_ <= 1048576
_C26: x__6_3_ <= 1048576
_C27: x__6_4_ <= 1048576
_C28: x__6_5_ <= 1048576
_C29: x__6_6_ <= 1048576
_C3: x__5_0_ + 6 x__5_10_ + 20 x__5_1_ + 180 x__5_2_ + 660 x__5_3_
 + 1245 x__5_4_ + 1512 x__5_5_ + 1260 x__5_6_ + 720 x__5_7_ + 270 x__5_8_
 + 60 x__5_9_ >= 17603211
_C30: x__6_7_ <= 1048576
_C31: x__6_8_ <= 1048576
_C32: x__6_9_ <= 1048576
_C33: x__6_10_ <= 1048576
_C34: x__6_11_ <= 1048576
_C35: x__6_12_ <= 1048576
_C36: x__6_13_ <= 1048576
_C37: x__6_14_ <= 1048576
_C38: x__6_15_ <= 1048576
_C39: x__6_16_ <= 1048576
_C4: x__6_0_ + 184756 x__6_10_ + 167960 x__6_11_ + 125970 x__6_12_
 + 77520 x__6_13_ + 38760 x__6_14_ + 15504 x__6_15_ + 4845 x__6_16_
 + 1140 x__6_17_ + 190 x__6_18_ + 20 x__6_19_ + 20 x__6_1_ + x__6_20_
 + 190 x__6_2_ + 1140 x__6_3_ + 4845 x__6_4_ + 15504 x__6_5_ + 38760 x__6_6_
 + 77520 x__6_7_ + 125970 x__6_8_ + 167960 x__6_9_ >= 549755289600
_C40: x__6_17_ <= 1048576
_C41: x__6_18_ <= 1048576
_C42: x__6_19_ <= 1048576
_C43: x__6_20_ <= 1048576
_C5: x__3_0_ <= 21
_C6: x__3_1_ <= 21
_C7: x__4_0_ <= 186
_C8: x__4_1_ <= 186
_C9: x__4_2_ <= 186
End
